predicate array_bool_even(array [int] of var bool: bs);
predicate array_bool_odd(array [int] of var bool: bs);
predicate bool_clause_reif(array [int] of var bool: pos, array [int] of var bool: neg, var bool: res);
predicate bool_conj_reif(array [int] of var bool: pos, array [int] of var bool: neg, var bool: res);
predicate int_in(var int: x, set of int: s);
var -504..72: INT____00001 :: is_defined_var :: var_is_introduced;
var 0..1: UT266z10 :: output_var;
var 0..1: UT266z11 :: output_var;
var 0..1: UT266z13 :: output_var;
var 0..1: UT266z14 :: output_var;
var 0..1: UT266z15 :: output_var;
var 0..1: UT266z16 :: output_var;
var 0..1: UT266z2 :: output_var;
var 0..1: UT266z3 :: output_var;
var 0..1: UT266z4 :: output_var;
var 0..1: UT266z5 :: output_var;
var 0..1: UT266z6 :: output_var;
var 0..1: UT266z8 :: output_var;
var 0..1: UT266z9 :: output_var;
var 0..1: UT269z10 :: output_var;
var 0..1: UT269z11 :: output_var;
var 0..1: UT269z13 :: output_var;
var 0..1: UT269z14 :: output_var;
var 0..1: UT269z15 :: output_var;
var 0..1: UT269z16 :: output_var;
var 0..1: UT269z2 :: output_var;
var 0..1: UT269z3 :: output_var;
var 0..1: UT269z4 :: output_var;
var 0..1: UT269z5 :: output_var;
var 0..1: UT269z6 :: output_var;
var 0..1: UT269z8 :: output_var;
var 0..1: UT269z9 :: output_var;
var 0..1: UT270z10 :: output_var;
var 0..1: UT270z11 :: output_var;
var 0..1: UT270z13 :: output_var;
var 0..1: UT270z14 :: output_var;
var 0..1: UT270z15 :: output_var;
var 0..1: UT270z16 :: output_var;
var 0..1: UT270z2 :: output_var;
var 0..1: UT270z3 :: output_var;
var 0..1: UT270z4 :: output_var;
var 0..1: UT270z5 :: output_var;
var 0..1: UT270z6 :: output_var;
var 0..1: UT270z8 :: output_var;
var 0..1: UT270z9 :: output_var;
var 0..1: UT271z10 :: output_var;
var 0..1: UT271z11 :: output_var;
var 0..1: UT271z13 :: output_var;
var 0..1: UT271z14 :: output_var;
var 0..1: UT271z15 :: output_var;
var 0..1: UT271z16 :: output_var;
var 0..1: UT271z2 :: output_var;
var 0..1: UT271z3 :: output_var;
var 0..1: UT271z4 :: output_var;
var 0..1: UT271z5 :: output_var;
var 0..1: UT271z6 :: output_var;
var 0..1: UT271z8 :: output_var;
var 0..1: UT271z9 :: output_var;
var 0..1: UT274z10 :: output_var;
var 0..1: UT274z11 :: output_var;
var 0..1: UT274z13 :: output_var;
var 0..1: UT274z14 :: output_var;
var 0..1: UT274z15 :: output_var;
var 0..1: UT274z16 :: output_var;
var 0..1: UT274z2 :: output_var;
var 0..1: UT274z3 :: output_var;
var 0..1: UT274z4 :: output_var;
var 0..1: UT274z5 :: output_var;
var 0..1: UT274z6 :: output_var;
var 0..1: UT274z8 :: output_var;
var 0..1: UT274z9 :: output_var;
var 0..1: UT275z10 :: output_var;
var 0..1: UT275z11 :: output_var;
var 0..1: UT275z13 :: output_var;
var 0..1: UT275z14 :: output_var;
var 0..1: UT275z15 :: output_var;
var 0..1: UT275z16 :: output_var;
var 0..1: UT275z2 :: output_var;
var 0..1: UT275z3 :: output_var;
var 0..1: UT275z4 :: output_var;
var 0..1: UT275z5 :: output_var;
var 0..1: UT275z6 :: output_var;
var 0..1: UT275z8 :: output_var;
var 0..1: UT275z9 :: output_var;
var 0..1: UT276z10 :: output_var;
var 0..1: UT276z11 :: output_var;
var 0..1: UT276z13 :: output_var;
var 0..1: UT276z14 :: output_var;
var 0..1: UT276z15 :: output_var;
var 0..1: UT276z16 :: output_var;
var 0..1: UT276z2 :: output_var;
var 0..1: UT276z3 :: output_var;
var 0..1: UT276z4 :: output_var;
var 0..1: UT276z5 :: output_var;
var 0..1: UT276z6 :: output_var;
var 0..1: UT276z8 :: output_var;
var 0..1: UT276z9 :: output_var;
var 0..1: UT279z10 :: output_var;
var 0..1: UT279z11 :: output_var;
var 0..1: UT279z13 :: output_var;
var 0..1: UT279z14 :: output_var;
var 0..1: UT279z15 :: output_var;
var 0..1: UT279z16 :: output_var;
var 0..1: UT279z2 :: output_var;
var 0..1: UT279z3 :: output_var;
var 0..1: UT279z4 :: output_var;
var 0..1: UT279z5 :: output_var;
var 0..1: UT279z6 :: output_var;
var 0..1: UT279z8 :: output_var;
var 0..1: UT279z9 :: output_var;
var 0..1: UT280z10 :: output_var;
var 0..1: UT280z11 :: output_var;
var 0..1: UT280z13 :: output_var;
var 0..1: UT280z14 :: output_var;
var 0..1: UT280z15 :: output_var;
var 0..1: UT280z16 :: output_var;
var 0..1: UT280z2 :: output_var;
var 0..1: UT280z3 :: output_var;
var 0..1: UT280z4 :: output_var;
var 0..1: UT280z5 :: output_var;
var 0..1: UT280z6 :: output_var;
var 0..1: UT280z8 :: output_var;
var 0..1: UT280z9 :: output_var;
var 0..1: UT281z10 :: output_var;
var 0..1: UT281z11 :: output_var;
var 0..1: UT281z13 :: output_var;
var 0..1: UT281z14 :: output_var;
var 0..1: UT281z15 :: output_var;
var 0..1: UT281z16 :: output_var;
var 0..1: UT281z2 :: output_var;
var 0..1: UT281z3 :: output_var;
var 0..1: UT281z4 :: output_var;
var 0..1: UT281z5 :: output_var;
var 0..1: UT281z6 :: output_var;
var 0..1: UT281z8 :: output_var;
var 0..1: UT281z9 :: output_var;
var 0..1: UT282z10 :: output_var;
var 0..1: UT282z11 :: output_var;
var 0..1: UT282z13 :: output_var;
var 0..1: UT282z14 :: output_var;
var 0..1: UT282z15 :: output_var;
var 0..1: UT282z16 :: output_var;
var 0..1: UT282z2 :: output_var;
var 0..1: UT282z3 :: output_var;
var 0..1: UT282z4 :: output_var;
var 0..1: UT282z5 :: output_var;
var 0..1: UT282z6 :: output_var;
var 0..1: UT282z8 :: output_var;
var 0..1: UT282z9 :: output_var;
var 0..1: UT283z10 :: output_var;
var 0..1: UT283z11 :: output_var;
var 0..1: UT283z13 :: output_var;
var 0..1: UT283z14 :: output_var;
var 0..1: UT283z15 :: output_var;
var 0..1: UT283z16 :: output_var;
var 0..1: UT283z2 :: output_var;
var 0..1: UT283z3 :: output_var;
var 0..1: UT283z4 :: output_var;
var 0..1: UT283z5 :: output_var;
var 0..1: UT283z6 :: output_var;
var 0..1: UT283z8 :: output_var;
var 0..1: UT283z9 :: output_var;
var -504..72: obj :: output_var = INT____00001;
constraint int_lin_eq([-1, -1, -1, -1, -1, -1, -1, -1, -1, -1, -1, -1, -1], [UT266z10, UT266z11, UT266z13, UT266z14, UT266z15, UT266z16, UT266z2, UT266z3, UT266z4, UT266z5, UT266z6, UT266z8, UT266z9], -2);
constraint int_lin_eq([-1, -1, -1, -1, -1, -1, -1, -1, -1, -1, -1, -1, -1], [UT269z10, UT269z11, UT269z13, UT269z14, UT269z15, UT269z16, UT269z2, UT269z3, UT269z4, UT269z5, UT269z6, UT269z8, UT269z9], -1);
constraint int_lin_eq([-1, -1, -1, -1, -1, -1, -1, -1, -1, -1, -1, -1, -1], [UT270z10, UT270z11, UT270z13, UT270z14, UT270z15, UT270z16, UT270z2, UT270z3, UT270z4, UT270z5, UT270z6, UT270z8, UT270z9], -1);
constraint int_lin_eq([-1, -1, -1, -1, -1, -1, -1, -1, -1, -1, -1, -1, -1], [UT271z10, UT271z11, UT271z13, UT271z14, UT271z15, UT271z16, UT271z2, UT271z3, UT271z4, UT271z5, UT271z6, UT271z8, UT271z9], -2);
constraint int_lin_eq([-1, -1, -1, -1, -1, -1, -1, -1, -1, -1, -1, -1, -1], [UT274z10, UT274z11, UT274z13, UT274z14, UT274z15, UT274z16, UT274z2, UT274z3, UT274z4, UT274z5, UT274z6, UT274z8, UT274z9], -1);
constraint int_lin_eq([-1, -1, -1, -1, -1, -1, -1, -1, -1, -1, -1, -1, -1], [UT275z10, UT275z11, UT275z13, UT275z14, UT275z15, UT275z16, UT275z2, UT275z3, UT275z4, UT275z5, UT275z6, UT275z8, UT275z9], -1);
constraint int_lin_eq([-1, -1, -1, -1, -1, -1, -1, -1, -1, -1, -1, -1, -1], [UT276z10, UT276z11, UT276z13, UT276z14, UT276z15, UT276z16, UT276z2, UT276z3, UT276z4, UT276z5, UT276z6, UT276z8, UT276z9], -2);
constraint int_lin_eq([-1, -1, -1, -1, -1, -1, -1, -1, -1, -1, -1, -1, -1], [UT279z10, UT279z11, UT279z13, UT279z14, UT279z15, UT279z16, UT279z2, UT279z3, UT279z4, UT279z5, UT279z6, UT279z8, UT279z9], -1);
constraint int_lin_eq([-1, -1, -1, -1, -1, -1, -1, -1, -1, -1, -1, -1, -1], [UT280z10, UT280z11, UT280z13, UT280z14, UT280z15, UT280z16, UT280z2, UT280z3, UT280z4, UT280z5, UT280z6, UT280z8, UT280z9], -2);
constraint int_lin_eq([-1, -1, -1, -1, -1, -1, -1, -1, -1, -1, -1, -1, -1], [UT281z10, UT281z11, UT281z13, UT281z14, UT281z15, UT281z16, UT281z2, UT281z3, UT281z4, UT281z5, UT281z6, UT281z8, UT281z9], -1);
constraint int_lin_eq([-1, -1, -1, -1, -1, -1, -1, -1, -1, -1, -1, -1, -1], [UT282z10, UT282z11, UT282z13, UT282z14, UT282z15, UT282z16, UT282z2, UT282z3, UT282z4, UT282z5, UT282z6, UT282z8, UT282z9], -1);
constraint int_lin_eq([-1, -1, -1, -1, -1, -1, -1, -1, -1, -1, -1, -1, -1], [UT283z10, UT283z11, UT283z13, UT283z14, UT283z15, UT283z16, UT283z2, UT283z3, UT283z4, UT283z5, UT283z6, UT283z8, UT283z9], -1);
constraint int_lin_eq([-1, -2, -2, 1, 1, 1, 1, -4, -4, -4, -4, -4, -2, -2, -2, -2, 1, 1, 1, 1, -4, -4, -4, -4, -4, -2, -2, -2, -2, 1, 1, 1, 1, -4, -4, -4, -4, -4, -2, -2, -2, -2, 1, 1, 1, 1, -4, -4, -4, -4, -4, -2, -2, -2, -2, 1, 1, 1, 1, -4, -4, -4, -4, -4, -2, -2, -2, -2, 1, 1, 1, 1, -4, -4, -4, -4, -4, -2, -2, -2, -2, 1, 1, 1, 1, -4, -4, -4, -4, -4, -2, -2, -2, -2, 1, 1, 1, 1, -4, -4, -4, -4, -4, -2, -2, -6, -6, 3, 3, 3, 3, -12, -12, -12, -12, -12, -6, -6, -6, -6, 3, 3, 3, 3, -12, -12, -12, -12, -12, -6, -6, -4, -4, 2, 2, 2, 2, -8, -8, -8, -8, -8, -4, -4, -4, -4, 2, 2, 2, 2, -8, -8, -8, -8, -8, -4, -4], [INT____00001, UT266z10, UT266z11, UT266z13, UT266z14, UT266z15, UT266z16, UT266z2, UT266z3, UT266z4, UT266z5, UT266z6, UT266z8, UT266z9, UT269z10, UT269z11, UT269z13, UT269z14, UT269z15, UT269z16, UT269z2, UT269z3, UT269z4, UT269z5, UT269z6, UT269z8, UT269z9, UT270z10, UT270z11, UT270z13, UT270z14, UT270z15, UT270z16, UT270z2, UT270z3, UT270z4, UT270z5, UT270z6, UT270z8, UT270z9, UT271z10, UT271z11, UT271z13, UT271z14, UT271z15, UT271z16, UT271z2, UT271z3, UT271z4, UT271z5, UT271z6, UT271z8, UT271z9, UT274z10, UT274z11, UT274z13, UT274z14, UT274z15, UT274z16, UT274z2, UT274z3, UT274z4, UT274z5, UT274z6, UT274z8, UT274z9, UT275z10, UT275z11, UT275z13, UT275z14, UT275z15, UT275z16, UT275z2, UT275z3, UT275z4, UT275z5, UT275z6, UT275z8, UT275z9, UT276z10, UT276z11, UT276z13, UT276z14, UT276z15, UT276z16, UT276z2, UT276z3, UT276z4, UT276z5, UT276z6, UT276z8, UT276z9, UT279z10, UT279z11, UT279z13, UT279z14, UT279z15, UT279z16, UT279z2, UT279z3, UT279z4, UT279z5, UT279z6, UT279z8, UT279z9, UT280z10, UT280z11, UT280z13, UT280z14, UT280z15, UT280z16, UT280z2, UT280z3, UT280z4, UT280z5, UT280z6, UT280z8, UT280z9, UT281z10, UT281z11, UT281z13, UT281z14, UT281z15, UT281z16, UT281z2, UT281z3, UT281z4, UT281z5, UT281z6, UT281z8, UT281z9, UT282z10, UT282z11, UT282z13, UT282z14, UT282z15, UT282z16, UT282z2, UT282z3, UT282z4, UT282z5, UT282z6, UT282z8, UT282z9, UT283z10, UT283z11, UT283z13, UT283z14, UT283z15, UT283z16, UT283z2, UT283z3, UT283z4, UT283z5, UT283z6, UT283z8, UT283z9], 0) :: defines_var(INT____00001);
constraint int_lin_le([1, 1], [UT271z10, UT280z10], 1);
constraint int_lin_le([1, 1], [UT271z11, UT280z11], 1);
constraint int_lin_le([1, 1], [UT271z13, UT280z13], 1);
constraint int_lin_le([1, 1], [UT271z14, UT280z14], 1);
constraint int_lin_le([1, 1], [UT271z15, UT280z15], 1);
constraint int_lin_le([1, 1], [UT271z16, UT280z16], 1);
constraint int_lin_le([1, 1], [UT271z2, UT280z2], 1);
constraint int_lin_le([1, 1], [UT271z3, UT280z3], 1);
constraint int_lin_le([1, 1], [UT271z4, UT280z4], 1);
constraint int_lin_le([1, 1], [UT271z5, UT280z5], 1);
constraint int_lin_le([1, 1], [UT271z6, UT280z6], 1);
constraint int_lin_le([1, 1], [UT271z8, UT280z8], 1);
constraint int_lin_le([1, 1], [UT271z9, UT280z9], 1);
constraint int_lin_le([1, 1, 1], [UT266z10, UT276z10, UT280z10], 1);
constraint int_lin_le([1, 1, 1], [UT266z11, UT276z11, UT280z11], 1);
constraint int_lin_le([1, 1, 1], [UT266z13, UT276z13, UT280z13], 1);
constraint int_lin_le([1, 1, 1], [UT266z14, UT276z14, UT280z14], 1);
constraint int_lin_le([1, 1, 1], [UT266z15, UT276z15, UT280z15], 1);
constraint int_lin_le([1, 1, 1], [UT266z16, UT276z16, UT280z16], 1);
constraint int_lin_le([1, 1, 1], [UT266z2, UT276z2, UT280z2], 1);
constraint int_lin_le([1, 1, 1], [UT266z3, UT276z3, UT280z3], 1);
constraint int_lin_le([1, 1, 1], [UT266z4, UT276z4, UT280z4], 1);
constraint int_lin_le([1, 1, 1], [UT266z5, UT276z5, UT280z5], 1);
constraint int_lin_le([1, 1, 1], [UT266z6, UT276z6, UT280z6], 1);
constraint int_lin_le([1, 1, 1], [UT266z8, UT276z8, UT280z8], 1);
constraint int_lin_le([1, 1, 1], [UT266z9, UT276z9, UT280z9], 1);
constraint int_lin_le([1, 1, 1, 1], [UT269z10, UT270z10, UT281z10, UT282z10], 1);
constraint int_lin_le([1, 1, 1, 1], [UT269z11, UT270z11, UT281z11, UT282z11], 1);
constraint int_lin_le([1, 1, 1, 1], [UT269z13, UT270z13, UT281z13, UT282z13], 1);
constraint int_lin_le([1, 1, 1, 1], [UT269z14, UT270z14, UT281z14, UT282z14], 1);
constraint int_lin_le([1, 1, 1, 1], [UT269z15, UT270z15, UT281z15, UT282z15], 1);
constraint int_lin_le([1, 1, 1, 1], [UT269z16, UT270z16, UT281z16, UT282z16], 1);
constraint int_lin_le([1, 1, 1, 1], [UT269z2, UT270z2, UT281z2, UT282z2], 1);
constraint int_lin_le([1, 1, 1, 1], [UT269z3, UT270z3, UT281z3, UT282z3], 1);
constraint int_lin_le([1, 1, 1, 1], [UT269z4, UT270z4, UT281z4, UT282z4], 1);
constraint int_lin_le([1, 1, 1, 1], [UT269z5, UT270z5, UT281z5, UT282z5], 1);
constraint int_lin_le([1, 1, 1, 1], [UT269z6, UT270z6, UT281z6, UT282z6], 1);
constraint int_lin_le([1, 1, 1, 1], [UT269z8, UT270z8, UT281z8, UT282z8], 1);
constraint int_lin_le([1, 1, 1, 1], [UT269z9, UT270z9, UT281z9, UT282z9], 1);
constraint int_lin_le([1, 1, 1, 1, 1], [UT274z10, UT275z10, UT279z10, UT281z10, UT283z10], 1);
constraint int_lin_le([1, 1, 1, 1, 1], [UT274z11, UT275z11, UT279z11, UT281z11, UT283z11], 1);
constraint int_lin_le([1, 1, 1, 1, 1], [UT274z13, UT275z13, UT279z13, UT281z13, UT283z13], 1);
constraint int_lin_le([1, 1, 1, 1, 1], [UT274z14, UT275z14, UT279z14, UT281z14, UT283z14], 1);
constraint int_lin_le([1, 1, 1, 1, 1], [UT274z15, UT275z15, UT279z15, UT281z15, UT283z15], 1);
constraint int_lin_le([1, 1, 1, 1, 1], [UT274z16, UT275z16, UT279z16, UT281z16, UT283z16], 1);
constraint int_lin_le([1, 1, 1, 1, 1], [UT274z2, UT275z2, UT279z2, UT281z2, UT283z2], 1);
constraint int_lin_le([1, 1, 1, 1, 1], [UT274z3, UT275z3, UT279z3, UT281z3, UT283z3], 1);
constraint int_lin_le([1, 1, 1, 1, 1], [UT274z4, UT275z4, UT279z4, UT281z4, UT283z4], 1);
constraint int_lin_le([1, 1, 1, 1, 1], [UT274z5, UT275z5, UT279z5, UT281z5, UT283z5], 1);
constraint int_lin_le([1, 1, 1, 1, 1], [UT274z6, UT275z6, UT279z6, UT281z6, UT283z6], 1);
constraint int_lin_le([1, 1, 1, 1, 1], [UT274z8, UT275z8, UT279z8, UT281z8, UT283z8], 1);
constraint int_lin_le([1, 1, 1, 1, 1], [UT274z9, UT275z9, UT279z9, UT281z9, UT283z9], 1);
constraint int_lin_le([1, 1, 1, 1, 1, 1], [UT266z10, UT269z10, UT280z10, UT281z10, UT282z10, UT283z10], 1);
constraint int_lin_le([1, 1, 1, 1, 1, 1], [UT266z11, UT269z11, UT280z11, UT281z11, UT282z11, UT283z11], 1);
constraint int_lin_le([1, 1, 1, 1, 1, 1], [UT266z13, UT269z13, UT280z13, UT281z13, UT282z13, UT283z13], 1);
constraint int_lin_le([1, 1, 1, 1, 1, 1], [UT266z14, UT269z14, UT280z14, UT281z14, UT282z14, UT283z14], 1);
constraint int_lin_le([1, 1, 1, 1, 1, 1], [UT266z15, UT269z15, UT280z15, UT281z15, UT282z15, UT283z15], 1);
constraint int_lin_le([1, 1, 1, 1, 1, 1], [UT266z16, UT269z16, UT280z16, UT281z16, UT282z16, UT283z16], 1);
constraint int_lin_le([1, 1, 1, 1, 1, 1], [UT266z2, UT269z2, UT280z2, UT281z2, UT282z2, UT283z2], 1);
constraint int_lin_le([1, 1, 1, 1, 1, 1], [UT266z3, UT269z3, UT280z3, UT281z3, UT282z3, UT283z3], 1);
constraint int_lin_le([1, 1, 1, 1, 1, 1], [UT266z4, UT269z4, UT280z4, UT281z4, UT282z4, UT283z4], 1);
constraint int_lin_le([1, 1, 1, 1, 1, 1], [UT266z5, UT269z5, UT280z5, UT281z5, UT282z5, UT283z5], 1);
constraint int_lin_le([1, 1, 1, 1, 1, 1], [UT266z6, UT269z6, UT280z6, UT281z6, UT282z6, UT283z6], 1);
constraint int_lin_le([1, 1, 1, 1, 1, 1], [UT266z8, UT269z8, UT280z8, UT281z8, UT282z8, UT283z8], 1);
constraint int_lin_le([1, 1, 1, 1, 1, 1], [UT266z9, UT269z9, UT280z9, UT281z9, UT282z9, UT283z9], 1);
constraint int_lin_le([1, 1, 1, 1, 1, 1], [UT270z10, UT271z10, UT274z10, UT280z10, UT281z10, UT282z10], 1);
constraint int_lin_le([1, 1, 1, 1, 1, 1], [UT270z11, UT271z11, UT274z11, UT280z11, UT281z11, UT282z11], 1);
constraint int_lin_le([1, 1, 1, 1, 1, 1], [UT270z13, UT271z13, UT274z13, UT280z13, UT281z13, UT282z13], 1);
constraint int_lin_le([1, 1, 1, 1, 1, 1], [UT270z14, UT271z14, UT274z14, UT280z14, UT281z14, UT282z14], 1);
constraint int_lin_le([1, 1, 1, 1, 1, 1], [UT270z15, UT271z15, UT274z15, UT280z15, UT281z15, UT282z15], 1);
constraint int_lin_le([1, 1, 1, 1, 1, 1], [UT270z16, UT271z16, UT274z16, UT280z16, UT281z16, UT282z16], 1);
constraint int_lin_le([1, 1, 1, 1, 1, 1], [UT270z2, UT271z2, UT274z2, UT280z2, UT281z2, UT282z2], 1);
constraint int_lin_le([1, 1, 1, 1, 1, 1], [UT270z3, UT271z3, UT274z3, UT280z3, UT281z3, UT282z3], 1);
constraint int_lin_le([1, 1, 1, 1, 1, 1], [UT270z4, UT271z4, UT274z4, UT280z4, UT281z4, UT282z4], 1);
constraint int_lin_le([1, 1, 1, 1, 1, 1], [UT270z5, UT271z5, UT274z5, UT280z5, UT281z5, UT282z5], 1);
constraint int_lin_le([1, 1, 1, 1, 1, 1], [UT270z6, UT271z6, UT274z6, UT280z6, UT281z6, UT282z6], 1);
constraint int_lin_le([1, 1, 1, 1, 1, 1], [UT270z8, UT271z8, UT274z8, UT280z8, UT281z8, UT282z8], 1);
constraint int_lin_le([1, 1, 1, 1, 1, 1], [UT270z9, UT271z9, UT274z9, UT280z9, UT281z9, UT282z9], 1);
constraint int_lin_le([1, 1, 1, 1, 1, 1], [UT275z10, UT276z10, UT279z10, UT280z10, UT281z10, UT283z10], 1);
constraint int_lin_le([1, 1, 1, 1, 1, 1], [UT275z11, UT276z11, UT279z11, UT280z11, UT281z11, UT283z11], 1);
constraint int_lin_le([1, 1, 1, 1, 1, 1], [UT275z13, UT276z13, UT279z13, UT280z13, UT281z13, UT283z13], 1);
constraint int_lin_le([1, 1, 1, 1, 1, 1], [UT275z14, UT276z14, UT279z14, UT280z14, UT281z14, UT283z14], 1);
constraint int_lin_le([1, 1, 1, 1, 1, 1], [UT275z15, UT276z15, UT279z15, UT280z15, UT281z15, UT283z15], 1);
constraint int_lin_le([1, 1, 1, 1, 1, 1], [UT275z16, UT276z16, UT279z16, UT280z16, UT281z16, UT283z16], 1);
constraint int_lin_le([1, 1, 1, 1, 1, 1], [UT275z2, UT276z2, UT279z2, UT280z2, UT281z2, UT283z2], 1);
constraint int_lin_le([1, 1, 1, 1, 1, 1], [UT275z3, UT276z3, UT279z3, UT280z3, UT281z3, UT283z3], 1);
constraint int_lin_le([1, 1, 1, 1, 1, 1], [UT275z4, UT276z4, UT279z4, UT280z4, UT281z4, UT283z4], 1);
constraint int_lin_le([1, 1, 1, 1, 1, 1], [UT275z5, UT276z5, UT279z5, UT280z5, UT281z5, UT283z5], 1);
constraint int_lin_le([1, 1, 1, 1, 1, 1], [UT275z6, UT276z6, UT279z6, UT280z6, UT281z6, UT283z6], 1);
constraint int_lin_le([1, 1, 1, 1, 1, 1], [UT275z8, UT276z8, UT279z8, UT280z8, UT281z8, UT283z8], 1);
constraint int_lin_le([1, 1, 1, 1, 1, 1], [UT275z9, UT276z9, UT279z9, UT280z9, UT281z9, UT283z9], 1);
solve minimize INT____00001;
